data/lp_files/q3/88_2.lp
\ Model foo
\ LP format - for model browsing. Use MPS format to capture full model detail.
Minimize
  z
Subject To
 allocateEach[1]: x[1,1] + x[2,1] + x[3,1] + x[4,1] + x[5,1] = 1
 allocateEach[2]: x[1,2] + x[2,2] + x[3,2] + x[4,2] + x[5,2] = 1
 allocateEach[3]: x[1,3] + x[2,3] + x[3,3] + x[4,3] + x[5,3] = 1
 allocateEach[4]: x[1,4] + x[2,4] + x[3,4] + x[4,4] + x[5,4] = 1
 allocateEach[5]: x[1,5] + x[2,5] + x[3,5] + x[4,5] + x[5,5] = 1
 allocateEach[6]: x[1,6] + x[2,6] + x[3,6] + x[4,6] + x[5,6] = 1
 allocateEach[7]: x[1,7] + x[2,7] + x[3,7] + x[4,7] + x[5,7] = 1
 allocateEach[8]: x[1,8] + x[2,8] + x[3,8] + x[4,8] + x[5,8] = 1
 allocateAllCash: cashProportion[1] + cashProportion[2] + cashProportion[3]
   + cashProportion[4] + cashProportion[5] = 1
 findWorstP[1,2]: z + 0.0305592339818682 cashProportion[1]
   - 0.0305592339818682 cashProportion[2] + 0.1129265559743303 x[1,1]
   + 0.0440664154018539 x[1,2] + 0.1494346541713354 x[1,3]
   + 0.1707242538453703 x[1,4] + 0.1739635326474483 x[1,5]
   + 0.0289294081695019 x[1,6] + 0.1903229092390751 x[1,7]
   + 0.0990730365692167 x[1,8] - 0.1129265559743303 x[2,1]
   - 0.0440664154018539 x[2,2] - 0.1494346541713354 x[2,3]
   - 0.1707242538453703 x[2,4] - 0.1739635326474483 x[2,5]
   - 0.0289294081695019 x[2,6] - 0.1903229092390751 x[2,7]
   - 0.0990730365692167 x[2,8] >= 0
 findWorstP[1,3]: z + 0.0305592339818682 cashProportion[1]
   - 0.0305592339818682 cashProportion[3] + 0.1129265559743303 x[1,1]
   + 0.0440664154018539 x[1,2] + 0.1494346541713354 x[1,3]
   + 0.1707242538453703 x[1,4] + 0.1739635326474483 x[1,5]
   + 0.0289294081695019 x[1,6] + 0.1903229092390751 x[1,7]
   + 0.0990730365692167 x[1,8] - 0.1129265559743303 x[3,1]
   - 0.0440664154018539 x[3,2] - 0.1494346541713354 x[3,3]
   - 0.1707242538453703 x[3,4] - 0.1739635326474483 x[3,5]
   - 0.0289294081695019 x[3,6] - 0.1903229092390751 x[3,7]
   - 0.0990730365692167 x[3,8] >= 0
 findWorstP[1,4]: z + 0.0305592339818682 cashProportion[1]
   - 0.0305592339818682 cashProportion[4] + 0.1129265559743303 x[1,1]
   + 0.0440664154018539 x[1,2] + 0.1494346541713354 x[1,3]
   + 0.1707242538453703 x[1,4] + 0.1739635326474483 x[1,5]
   + 0.0289294081695019 x[1,6] + 0.1903229092390751 x[1,7]
   + 0.0990730365692167 x[1,8] - 0.1129265559743303 x[4,1]
   - 0.0440664154018539 x[4,2] - 0.1494346541713354 x[4,3]
   - 0.1707242538453703 x[4,4] - 0.1739635326474483 x[4,5]
   - 0.0289294081695019 x[4,6] - 0.1903229092390751 x[4,7]
   - 0.0990730365692167 x[4,8] >= 0
 findWorstP[1,5]: z + 0.0305592339818682 cashProportion[1]
   - 0.0305592339818682 cashProportion[5] + 0.1129265559743303 x[1,1]
   + 0.0440664154018539 x[1,2] + 0.1494346541713354 x[1,3]
   + 0.1707242538453703 x[1,4] + 0.1739635326474483 x[1,5]
   + 0.0289294081695019 x[1,6] + 0.1903229092390751 x[1,7]
   + 0.0990730365692167 x[1,8] - 0.1129265559743303 x[5,1]
   - 0.0440664154018539 x[5,2] - 0.1494346541713354 x[5,3]
   - 0.1707242538453703 x[5,4] - 0.1739635326474483 x[5,5]
   - 0.0289294081695019 x[5,6] - 0.1903229092390751 x[5,7]
   - 0.0990730365692167 x[5,8] >= 0
 findWorstP[2,1]: z - 0.0332623736029803 cashProportion[1]
   + 0.0332623736029803 cashProportion[2] - 0.1465540180947312 x[1,1]
   - 0.0846860031931879 x[1,2] - 0.1414537874756076 x[1,3]
   - 0.0128171012950151 x[1,4] - 0.0124401277275146 x[1,5]
   - 0.2120808940926024 x[1,6] - 0.2213943587014369 x[1,7]
   - 0.1353113358169239 x[1,8] + 0.1465540180947312 x[2,1]
   + 0.0846860031931879 x[2,2] + 0.1414537874756076 x[2,3]
   + 0.0128171012950151 x[2,4] + 0.0124401277275146 x[2,5]
   + 0.2120808940926024 x[2,6] + 0.2213943587014369 x[2,7]
   + 0.1353113358169239 x[2,8] >= 0
 findWorstP[2,3]: z + 0.0332623736029803 cashProportion[2]
   - 0.0332623736029803 cashProportion[3] + 0.1465540180947312 x[2,1]
   + 0.0846860031931879 x[2,2] + 0.1414537874756076 x[2,3]
   + 0.0128171012950151 x[2,4] + 0.0124401277275146 x[2,5]
   + 0.2120808940926024 x[2,6] + 0.2213943587014369 x[2,7]
   + 0.1353113358169239 x[2,8] - 0.1465540180947312 x[3,1]
   - 0.0846860031931879 x[3,2] - 0.1414537874756076 x[3,3]
   - 0.0128171012950151 x[3,4] - 0.0124401277275146 x[3,5]
   - 0.2120808940926024 x[3,6] - 0.2213943587014369 x[3,7]
   - 0.1353113358169239 x[3,8] >= 0
 findWorstP[2,4]: z + 0.0332623736029803 cashProportion[2]
   - 0.0332623736029803 cashProportion[4] + 0.1465540180947312 x[2,1]
   + 0.0846860031931879 x[2,2] + 0.1414537874756076 x[2,3]
   + 0.0128171012950151 x[2,4] + 0.0124401277275146 x[2,5]
   + 0.2120808940926024 x[2,6] + 0.2213943587014369 x[2,7]
   + 0.1353113358169239 x[2,8] - 0.1465540180947312 x[4,1]
   - 0.0846860031931879 x[4,2] - 0.1414537874756076 x[4,3]
   - 0.0128171012950151 x[4,4] - 0.0124401277275146 x[4,5]
   - 0.2120808940926024 x[4,6] - 0.2213943587014369 x[4,7]
   - 0.1353113358169239 x[4,8] >= 0
 findWorstP[2,5]: z + 0.0332623736029803 cashProportion[2]
   - 0.0332623736029803 cashProportion[5] + 0.1465540180947312 x[2,1]
   + 0.0846860031931879 x[2,2] + 0.1414537874756076 x[2,3]
   + 0.0128171012950151 x[2,4] + 0.0124401277275146 x[2,5]
   + 0.2120808940926024 x[2,6] + 0.2213943587014369 x[2,7]
   + 0.1353113358169239 x[2,8] - 0.1465540180947312 x[5,1]
   - 0.0846860031931879 x[5,2] - 0.1414537874756076 x[5,3]
   - 0.0128171012950151 x[5,4] - 0.0124401277275146 x[5,5]
   - 0.2120808940926024 x[5,6] - 0.2213943587014369 x[5,7]
   - 0.1353113358169239 x[5,8] >= 0
 findWorstP[3,1]: z - 0.0399148483235764 cashProportion[1]
   + 0.0399148483235764 cashProportion[3] - 0.1464342735497605 x[1,1]
   - 0.1179616817456094 x[1,2] - 0.1985364555614689 x[1,3]
   - 0.1814795103778606 x[1,4] - 0.0802554550292709 x[1,5]
   - 0.0981106971793507 x[1,6] - 0.039888238424694 x[1,7]
   - 0.0974188398084087 x[1,8] + 0.1464342735497605 x[3,1]
   + 0.1179616817456094 x[3,2] + 0.1985364555614689 x[3,3]
   + 0.1814795103778606 x[3,4] + 0.0802554550292709 x[3,5]
   + 0.0981106971793507 x[3,6] + 0.039888238424694 x[3,7]
   + 0.0974188398084087 x[3,8] >= 0
 findWorstP[3,2]: z - 0.0399148483235764 cashProportion[2]
   + 0.0399148483235764 cashProportion[3] - 0.1464342735497605 x[2,1]
   - 0.1179616817456094 x[2,2] - 0.1985364555614689 x[2,3]
   - 0.1814795103778606 x[2,4] - 0.0802554550292709 x[2,5]
   - 0.0981106971793507 x[2,6] - 0.039888238424694 x[2,7]
   - 0.0974188398084087 x[2,8] + 0.1464342735497605 x[3,1]
   + 0.1179616817456094 x[3,2] + 0.1985364555614689 x[3,3]
   + 0.1814795103778606 x[3,4] + 0.0802554550292709 x[3,5]
   + 0.0981106971793507 x[3,6] + 0.039888238424694 x[3,7]
   + 0.0974188398084087 x[3,8] >= 0
 findWorstP[3,4]: z + 0.0399148483235764 cashProportion[3]
   - 0.0399148483235764 cashProportion[4] + 0.1464342735497605 x[3,1]
   + 0.1179616817456094 x[3,2] + 0.1985364555614689 x[3,3]
   + 0.1814795103778606 x[3,4] + 0.0802554550292709 x[3,5]
   + 0.0981106971793507 x[3,6] + 0.039888238424694 x[3,7]
   + 0.0974188398084087 x[3,8] - 0.1464342735497605 x[4,1]
   - 0.1179616817456094 x[4,2] - 0.1985364555614689 x[4,3]
   - 0.1814795103778606 x[4,4] - 0.0802554550292709 x[4,5]
   - 0.0981106971793507 x[4,6] - 0.039888238424694 x[4,7]
   - 0.0974188398084087 x[4,8] >= 0
 findWorstP[3,5]: z + 0.0399148483235764 cashProportion[3]
   - 0.0399148483235764 cashProportion[5] + 0.1464342735497605 x[3,1]
   + 0.1179616817456094 x[3,2] + 0.1985364555614689 x[3,3]
   + 0.1814795103778606 x[3,4] + 0.0802554550292709 x[3,5]
   + 0.0981106971793507 x[3,6] + 0.039888238424694 x[3,7]
   + 0.0974188398084087 x[3,8] - 0.1464342735497605 x[5,1]
   - 0.1179616817456094 x[5,2] - 0.1985364555614689 x[5,3]
   - 0.1814795103778606 x[5,4] - 0.0802554550292709 x[5,5]
   - 0.0981106971793507 x[5,6] - 0.039888238424694 x[5,7]
   - 0.0974188398084087 x[5,8] >= 0
 findWorstP[4,1]: z - 0.0393690454318784 cashProportion[1]
   + 0.0393690454318784 cashProportion[4] - 0.0695257342326973 x[1,1]
   - 0.0254848954095693 x[1,2] - 0.1087110574525603 x[1,3]
   - 0.0792367654392273 x[1,4] - 0.2274218524448177 x[1,5]
   - 0.1105220335424267 x[1,6] - 0.1155350253274192 x[1,7]
   - 0.2241935907194037 x[1,8] + 0.0695257342326973 x[4,1]
   + 0.0254848954095693 x[4,2] + 0.1087110574525603 x[4,3]
   + 0.0792367654392273 x[4,4] + 0.2274218524448177 x[4,5]
   + 0.1105220335424267 x[4,6] + 0.1155350253274192 x[4,7]
   + 0.2241935907194037 x[4,8] >= 0
 findWorstP[4,2]: z - 0.0393690454318784 cashProportion[2]
   + 0.0393690454318784 cashProportion[4] - 0.0695257342326973 x[2,1]
   - 0.0254848954095693 x[2,2] - 0.1087110574525603 x[2,3]
   - 0.0792367654392273 x[2,4] - 0.2274218524448177 x[2,5]
   - 0.1105220335424267 x[2,6] - 0.1155350253274192 x[2,7]
   - 0.2241935907194037 x[2,8] + 0.0695257342326973 x[4,1]
   + 0.0254848954095693 x[4,2] + 0.1087110574525603 x[4,3]
   + 0.0792367654392273 x[4,4] + 0.2274218524448177 x[4,5]
   + 0.1105220335424267 x[4,6] + 0.1155350253274192 x[4,7]
   + 0.2241935907194037 x[4,8] >= 0
 findWorstP[4,3]: z - 0.0393690454318784 cashProportion[3]
   + 0.0393690454318784 cashProportion[4] - 0.0695257342326973 x[3,1]
   - 0.0254848954095693 x[3,2] - 0.1087110574525603 x[3,3]
   - 0.0792367654392273 x[3,4] - 0.2274218524448177 x[3,5]
   - 0.1105220335424267 x[3,6] - 0.1155350253274192 x[3,7]
   - 0.2241935907194037 x[3,8] + 0.0695257342326973 x[4,1]
   + 0.0254848954095693 x[4,2] + 0.1087110574525603 x[4,3]
   + 0.0792367654392273 x[4,4] + 0.2274218524448177 x[4,5]
   + 0.1105220335424267 x[4,6] + 0.1155350253274192 x[4,7]
   + 0.2241935907194037 x[4,8] >= 0
 findWorstP[4,5]: z + 0.0393690454318784 cashProportion[4]
   - 0.0393690454318784 cashProportion[5] + 0.0695257342326973 x[4,1]
   + 0.0254848954095693 x[4,2] + 0.1087110574525603 x[4,3]
   + 0.0792367654392273 x[4,4] + 0.2274218524448177 x[4,5]
   + 0.1105220335424267 x[4,6] + 0.1155350253274192 x[4,7]
   + 0.2241935907194037 x[4,8] - 0.0695257342326973 x[5,1]
   - 0.0254848954095693 x[5,2] - 0.1087110574525603 x[5,3]
   - 0.0792367654392273 x[5,4] - 0.2274218524448177 x[5,5]
   - 0.1105220335424267 x[5,6] - 0.1155350253274192 x[5,7]
   - 0.2241935907194037 x[5,8] >= 0
 findWorstP[5,1]: z - 0.0310385498789497 cashProportion[1]
   + 0.0310385498789497 cashProportion[5] - 0.0912740290106979 x[1,1]
   - 0.1175119498417034 x[1,2] - 0.1883212282988805 x[1,3]
   - 0.1212158834605914 x[1,4] - 0.0650568005462785 x[1,5]
   - 0.1703602541022617 x[1,6] - 0.1981501024272146 x[1,7]
   - 0.0170712024334223 x[1,8] + 0.0912740290106979 x[5,1]
   + 0.1175119498417034 x[5,2] + 0.1883212282988805 x[5,3]
   + 0.1212158834605914 x[5,4] + 0.0650568005462785 x[5,5]
   + 0.1703602541022617 x[5,6] + 0.1981501024272146 x[5,7]
   + 0.0170712024334223 x[5,8] >= 0
 findWorstP[5,2]: z - 0.0310385498789497 cashProportion[2]
   + 0.0310385498789497 cashProportion[5] - 0.0912740290106979 x[2,1]
   - 0.1175119498417034 x[2,2] - 0.1883212282988805 x[2,3]
   - 0.1212158834605914 x[2,4] - 0.0650568005462785 x[2,5]
   - 0.1703602541022617 x[2,6] - 0.1981501024272146 x[2,7]
   - 0.0170712024334223 x[2,8] + 0.0912740290106979 x[5,1]
   + 0.1175119498417034 x[5,2] + 0.1883212282988805 x[5,3]
   + 0.1212158834605914 x[5,4] + 0.0650568005462785 x[5,5]
   + 0.1703602541022617 x[5,6] + 0.1981501024272146 x[5,7]
   + 0.0170712024334223 x[5,8] >= 0
 findWorstP[5,3]: z - 0.0310385498789497 cashProportion[3]
   + 0.0310385498789497 cashProportion[5] - 0.0912740290106979 x[3,1]
   - 0.1175119498417034 x[3,2] - 0.1883212282988805 x[3,3]
   - 0.1212158834605914 x[3,4] - 0.0650568005462785 x[3,5]
   - 0.1703602541022617 x[3,6] - 0.1981501024272146 x[3,7]
   - 0.0170712024334223 x[3,8] + 0.0912740290106979 x[5,1]
   + 0.1175119498417034 x[5,2] + 0.1883212282988805 x[5,3]
   + 0.1212158834605914 x[5,4] + 0.0650568005462785 x[5,5]
   + 0.1703602541022617 x[5,6] + 0.1981501024272146 x[5,7]
   + 0.0170712024334223 x[5,8] >= 0
 findWorstP[5,4]: z - 0.0310385498789497 cashProportion[4]
   + 0.0310385498789497 cashProportion[5] - 0.0912740290106979 x[4,1]
   - 0.1175119498417034 x[4,2] - 0.1883212282988805 x[4,3]
   - 0.1212158834605914 x[4,4] - 0.0650568005462785 x[4,5]
   - 0.1703602541022617 x[4,6] - 0.1981501024272146 x[4,7]
   - 0.0170712024334223 x[4,8] + 0.0912740290106979 x[5,1]
   + 0.1175119498417034 x[5,2] + 0.1883212282988805 x[5,3]
   + 0.1212158834605914 x[5,4] + 0.0650568005462785 x[5,5]
   + 0.1703602541022617 x[5,6] + 0.1981501024272146 x[5,7]
   + 0.0170712024334223 x[5,8] >= 0
Bounds
 z <= 1
 -infinity <= cashProportion[1] <= 1
 -infinity <= cashProportion[2] <= 1
 -infinity <= cashProportion[3] <= 1
 -infinity <= cashProportion[4] <= 1
 -infinity <= cashProportion[5] <= 1
Binaries
 x[1,1] x[1,2] x[1,3] x[1,4] x[1,5] x[1,6] x[1,7] x[1,8] x[2,1] x[2,2]
 x[2,3] x[2,4] x[2,5] x[2,6] x[2,7] x[2,8] x[3,1] x[3,2] x[3,3] x[3,4]
 x[3,5] x[3,6] x[3,7] x[3,8] x[4,1] x[4,2] x[4,3] x[4,4] x[4,5] x[4,6]
 x[4,7] x[4,8] x[5,1] x[5,2] x[5,3] x[5,4] x[5,5] x[5,6] x[5,7] x[5,8]
End
