data/mps_files/q3/88_2.mps
NAME foo
ROWS
 N  OBJ
 E  allocateEach[1]
 E  allocateEach[2]
 E  allocateEach[3]
 E  allocateEach[4]
 E  allocateEach[5]
 E  allocateEach[6]
 E  allocateEach[7]
 E  allocateEach[8]
 E  allocateAllCash
 G  findWorstP[1,2]
 G  findWorstP[1,3]
 G  findWorstP[1,4]
 G  findWorstP[1,5]
 G  findWorstP[2,1]
 G  findWorstP[2,3]
 G  findWorstP[2,4]
 G  findWorstP[2,5]
 G  findWorstP[3,1]
 G  findWorstP[3,2]
 G  findWorstP[3,4]
 G  findWorstP[3,5]
 G  findWorstP[4,1]
 G  findWorstP[4,2]
 G  findWorstP[4,3]
 G  findWorstP[4,5]
 G  findWorstP[5,1]
 G  findWorstP[5,2]
 G  findWorstP[5,3]
 G  findWorstP[5,4]
COLUMNS
    z         OBJ       1
    z         findWorstP[1,2]  1
    z         findWorstP[1,3]  1
    z         findWorstP[1,4]  1
    z         findWorstP[1,5]  1
    z         findWorstP[2,1]  1
    z         findWorstP[2,3]  1
    z         findWorstP[2,4]  1
    z         findWorstP[2,5]  1
    z         findWorstP[3,1]  1
    z         findWorstP[3,2]  1
    z         findWorstP[3,4]  1
    z         findWorstP[3,5]  1
    z         findWorstP[4,1]  1
    z         findWorstP[4,2]  1
    z         findWorstP[4,3]  1
    z         findWorstP[4,5]  1
    z         findWorstP[5,1]  1
    z         findWorstP[5,2]  1
    z         findWorstP[5,3]  1
    z         findWorstP[5,4]  1
    cashProportion[1]  allocateAllCash  1
    cashProportion[1]  findWorstP[1,2]  3.0559233981868193e-02
    cashProportion[1]  findWorstP[1,3]  3.0559233981868193e-02
    cashProportion[1]  findWorstP[1,4]  3.0559233981868193e-02
    cashProportion[1]  findWorstP[1,5]  3.0559233981868193e-02
    cashProportion[1]  findWorstP[2,1]  -3.3262373602980309e-02
    cashProportion[1]  findWorstP[3,1]  -3.9914848323576377e-02
    cashProportion[1]  findWorstP[4,1]  -3.9369045431878434e-02
    cashProportion[1]  findWorstP[5,1]  -3.1038549878949662e-02
    cashProportion[2]  allocateAllCash  1
    cashProportion[2]  findWorstP[1,2]  -3.0559233981868193e-02
    cashProportion[2]  findWorstP[2,1]  3.3262373602980309e-02
    cashProportion[2]  findWorstP[2,3]  3.3262373602980309e-02
    cashProportion[2]  findWorstP[2,4]  3.3262373602980309e-02
    cashProportion[2]  findWorstP[2,5]  3.3262373602980309e-02
    cashProportion[2]  findWorstP[3,2]  -3.9914848323576377e-02
    cashProportion[2]  findWorstP[4,2]  -3.9369045431878434e-02
    cashProportion[2]  findWorstP[5,2]  -3.1038549878949662e-02
    cashProportion[3]  allocateAllCash  1
    cashProportion[3]  findWorstP[1,3]  -3.0559233981868193e-02
    cashProportion[3]  findWorstP[2,3]  -3.3262373602980309e-02
    cashProportion[3]  findWorstP[3,1]  3.9914848323576377e-02
    cashProportion[3]  findWorstP[3,2]  3.9914848323576377e-02
    cashProportion[3]  findWorstP[3,4]  3.9914848323576377e-02
    cashProportion[3]  findWorstP[3,5]  3.9914848323576377e-02
    cashProportion[3]  findWorstP[4,3]  -3.9369045431878434e-02
    cashProportion[3]  findWorstP[5,3]  -3.1038549878949662e-02
    cashProportion[4]  allocateAllCash  1
    cashProportion[4]  findWorstP[1,4]  -3.0559233981868193e-02
    cashProportion[4]  findWorstP[2,4]  -3.3262373602980309e-02
    cashProportion[4]  findWorstP[3,4]  -3.9914848323576377e-02
    cashProportion[4]  findWorstP[4,1]  3.9369045431878434e-02
    cashProportion[4]  findWorstP[4,2]  3.9369045431878434e-02
    cashProportion[4]  findWorstP[4,3]  3.9369045431878434e-02
    cashProportion[4]  findWorstP[4,5]  3.9369045431878434e-02
    cashProportion[4]  findWorstP[5,4]  -3.1038549878949662e-02
    cashProportion[5]  allocateAllCash  1
    cashProportion[5]  findWorstP[1,5]  -3.0559233981868193e-02
    cashProportion[5]  findWorstP[2,5]  -3.3262373602980309e-02
    cashProportion[5]  findWorstP[3,5]  -3.9914848323576377e-02
    cashProportion[5]  findWorstP[4,5]  -3.9369045431878434e-02
    cashProportion[5]  findWorstP[5,1]  3.1038549878949662e-02
    cashProportion[5]  findWorstP[5,2]  3.1038549878949662e-02
    cashProportion[5]  findWorstP[5,3]  3.1038549878949662e-02
    cashProportion[5]  findWorstP[5,4]  3.1038549878949662e-02
    MARKER    'MARKER'                 'INTORG'
    x[1,1]    allocateEach[1]  1
    x[1,1]    findWorstP[1,2]  1.1292655597433025e-01
    x[1,1]    findWorstP[1,3]  1.1292655597433025e-01
    x[1,1]    findWorstP[1,4]  1.1292655597433025e-01
    x[1,1]    findWorstP[1,5]  1.1292655597433025e-01
    x[1,1]    findWorstP[2,1]  -1.4655401809473123e-01
    x[1,1]    findWorstP[3,1]  -1.4643427354976052e-01
    x[1,1]    findWorstP[4,1]  -6.9525734232697312e-02
    x[1,1]    findWorstP[5,1]  -9.1274029010697949e-02
    x[1,2]    allocateEach[2]  1
    x[1,2]    findWorstP[1,2]  4.4066415401853930e-02
    x[1,2]    findWorstP[1,3]  4.4066415401853930e-02
    x[1,2]    findWorstP[1,4]  4.4066415401853930e-02
    x[1,2]    findWorstP[1,5]  4.4066415401853930e-02
    x[1,2]    findWorstP[2,1]  -8.4686003193187850e-02
    x[1,2]    findWorstP[3,1]  -1.1796168174560938e-01
    x[1,2]    findWorstP[4,1]  -2.5484895409569306e-02
    x[1,2]    findWorstP[5,1]  -1.1751194984170339e-01
    x[1,3]    allocateEach[3]  1
    x[1,3]    findWorstP[1,2]  1.4943465417133545e-01
    x[1,3]    findWorstP[1,3]  1.4943465417133545e-01
    x[1,3]    findWorstP[1,4]  1.4943465417133545e-01
    x[1,3]    findWorstP[1,5]  1.4943465417133545e-01
    x[1,3]    findWorstP[2,1]  -1.4145378747560758e-01
    x[1,3]    findWorstP[3,1]  -1.9853645556146887e-01
    x[1,3]    findWorstP[4,1]  -1.0871105745256031e-01
    x[1,3]    findWorstP[5,1]  -1.8832122829888054e-01
    x[1,4]    allocateEach[4]  1
    x[1,4]    findWorstP[1,2]  1.7072425384537027e-01
    x[1,4]    findWorstP[1,3]  1.7072425384537027e-01
    x[1,4]    findWorstP[1,4]  1.7072425384537027e-01
    x[1,4]    findWorstP[1,5]  1.7072425384537027e-01
    x[1,4]    findWorstP[2,1]  -1.2817101295015076e-02
    x[1,4]    findWorstP[3,1]  -1.8147951037786059e-01
    x[1,4]    findWorstP[4,1]  -7.9236765439227322e-02
    x[1,4]    findWorstP[5,1]  -1.2121588346059138e-01
    x[1,5]    allocateEach[5]  1
    x[1,5]    findWorstP[1,2]  1.7396353264744832e-01
    x[1,5]    findWorstP[1,3]  1.7396353264744832e-01
    x[1,5]    findWorstP[1,4]  1.7396353264744832e-01
    x[1,5]    findWorstP[1,5]  1.7396353264744832e-01
    x[1,5]    findWorstP[2,1]  -1.2440127727514632e-02
    x[1,5]    findWorstP[3,1]  -8.0255455029270881e-02
    x[1,5]    findWorstP[4,1]  -2.2742185244481775e-01
    x[1,5]    findWorstP[5,1]  -6.5056800546278479e-02
    x[1,6]    allocateEach[6]  1
    x[1,6]    findWorstP[1,2]  2.8929408169501881e-02
    x[1,6]    findWorstP[1,3]  2.8929408169501881e-02
    x[1,6]    findWorstP[1,4]  2.8929408169501881e-02
    x[1,6]    findWorstP[1,5]  2.8929408169501881e-02
    x[1,6]    findWorstP[2,1]  -2.1208089409260242e-01
    x[1,6]    findWorstP[3,1]  -9.8110697179350725e-02
    x[1,6]    findWorstP[4,1]  -1.1052203354242671e-01
    x[1,6]    findWorstP[5,1]  -1.7036025410226169e-01
    x[1,7]    allocateEach[7]  1
    x[1,7]    findWorstP[1,2]  1.9032290923907508e-01
    x[1,7]    findWorstP[1,3]  1.9032290923907508e-01
    x[1,7]    findWorstP[1,4]  1.9032290923907508e-01
    x[1,7]    findWorstP[1,5]  1.9032290923907508e-01
    x[1,7]    findWorstP[2,1]  -2.2139435870143689e-01
    x[1,7]    findWorstP[3,1]  -3.9888238424693988e-02
    x[1,7]    findWorstP[4,1]  -1.1553502532741923e-01
    x[1,7]    findWorstP[5,1]  -1.9815010242721462e-01
    x[1,8]    allocateEach[8]  1
    x[1,8]    findWorstP[1,2]  9.9073036569216677e-02
    x[1,8]    findWorstP[1,3]  9.9073036569216677e-02
    x[1,8]    findWorstP[1,4]  9.9073036569216677e-02
    x[1,8]    findWorstP[1,5]  9.9073036569216677e-02
    x[1,8]    findWorstP[2,1]  -1.3531133581692387e-01
    x[1,8]    findWorstP[3,1]  -9.7418839808408722e-02
    x[1,8]    findWorstP[4,1]  -2.2419359071940370e-01
    x[1,8]    findWorstP[5,1]  -1.7071202433422313e-02
    x[2,1]    allocateEach[1]  1
    x[2,1]    findWorstP[1,2]  -1.1292655597433025e-01
    x[2,1]    findWorstP[2,1]  1.4655401809473123e-01
    x[2,1]    findWorstP[2,3]  1.4655401809473123e-01
    x[2,1]    findWorstP[2,4]  1.4655401809473123e-01
    x[2,1]    findWorstP[2,5]  1.4655401809473123e-01
    x[2,1]    findWorstP[3,2]  -1.4643427354976052e-01
    x[2,1]    findWorstP[4,2]  -6.9525734232697312e-02
    x[2,1]    findWorstP[5,2]  -9.1274029010697949e-02
    x[2,2]    allocateEach[2]  1
    x[2,2]    findWorstP[1,2]  -4.4066415401853930e-02
    x[2,2]    findWorstP[2,1]  8.4686003193187850e-02
    x[2,2]    findWorstP[2,3]  8.4686003193187850e-02
    x[2,2]    findWorstP[2,4]  8.4686003193187850e-02
    x[2,2]    findWorstP[2,5]  8.4686003193187850e-02
    x[2,2]    findWorstP[3,2]  -1.1796168174560938e-01
    x[2,2]    findWorstP[4,2]  -2.5484895409569306e-02
    x[2,2]    findWorstP[5,2]  -1.1751194984170339e-01
    x[2,3]    allocateEach[3]  1
    x[2,3]    findWorstP[1,2]  -1.4943465417133545e-01
    x[2,3]    findWorstP[2,1]  1.4145378747560758e-01
    x[2,3]    findWorstP[2,3]  1.4145378747560758e-01
    x[2,3]    findWorstP[2,4]  1.4145378747560758e-01
    x[2,3]    findWorstP[2,5]  1.4145378747560758e-01
    x[2,3]    findWorstP[3,2]  -1.9853645556146887e-01
    x[2,3]    findWorstP[4,2]  -1.0871105745256031e-01
    x[2,3]    findWorstP[5,2]  -1.8832122829888054e-01
    x[2,4]    allocateEach[4]  1
    x[2,4]    findWorstP[1,2]  -1.7072425384537027e-01
    x[2,4]    findWorstP[2,1]  1.2817101295015076e-02
    x[2,4]    findWorstP[2,3]  1.2817101295015076e-02
    x[2,4]    findWorstP[2,4]  1.2817101295015076e-02
    x[2,4]    findWorstP[2,5]  1.2817101295015076e-02
    x[2,4]    findWorstP[3,2]  -1.8147951037786059e-01
    x[2,4]    findWorstP[4,2]  -7.9236765439227322e-02
    x[2,4]    findWorstP[5,2]  -1.2121588346059138e-01
    x[2,5]    allocateEach[5]  1
    x[2,5]    findWorstP[1,2]  -1.7396353264744832e-01
    x[2,5]    findWorstP[2,1]  1.2440127727514632e-02
    x[2,5]    findWorstP[2,3]  1.2440127727514632e-02
    x[2,5]    findWorstP[2,4]  1.2440127727514632e-02
    x[2,5]    findWorstP[2,5]  1.2440127727514632e-02
    x[2,5]    findWorstP[3,2]  -8.0255455029270881e-02
    x[2,5]    findWorstP[4,2]  -2.2742185244481775e-01
    x[2,5]    findWorstP[5,2]  -6.5056800546278479e-02
    x[2,6]    allocateEach[6]  1
    x[2,6]    findWorstP[1,2]  -2.8929408169501881e-02
    x[2,6]    findWorstP[2,1]  2.1208089409260242e-01
    x[2,6]    findWorstP[2,3]  2.1208089409260242e-01
    x[2,6]    findWorstP[2,4]  2.1208089409260242e-01
    x[2,6]    findWorstP[2,5]  2.1208089409260242e-01
    x[2,6]    findWorstP[3,2]  -9.8110697179350725e-02
    x[2,6]    findWorstP[4,2]  -1.1052203354242671e-01
    x[2,6]    findWorstP[5,2]  -1.7036025410226169e-01
    x[2,7]    allocateEach[7]  1
    x[2,7]    findWorstP[1,2]  -1.9032290923907508e-01
    x[2,7]    findWorstP[2,1]  2.2139435870143689e-01
    x[2,7]    findWorstP[2,3]  2.2139435870143689e-01
    x[2,7]    findWorstP[2,4]  2.2139435870143689e-01
    x[2,7]    findWorstP[2,5]  2.2139435870143689e-01
    x[2,7]    findWorstP[3,2]  -3.9888238424693988e-02
    x[2,7]    findWorstP[4,2]  -1.1553502532741923e-01
    x[2,7]    findWorstP[5,2]  -1.9815010242721462e-01
    x[2,8]    allocateEach[8]  1
    x[2,8]    findWorstP[1,2]  -9.9073036569216677e-02
    x[2,8]    findWorstP[2,1]  1.3531133581692387e-01
    x[2,8]    findWorstP[2,3]  1.3531133581692387e-01
    x[2,8]    findWorstP[2,4]  1.3531133581692387e-01
    x[2,8]    findWorstP[2,5]  1.3531133581692387e-01
    x[2,8]    findWorstP[3,2]  -9.7418839808408722e-02
    x[2,8]    findWorstP[4,2]  -2.2419359071940370e-01
    x[2,8]    findWorstP[5,2]  -1.7071202433422313e-02
    x[3,1]    allocateEach[1]  1
    x[3,1]    findWorstP[1,3]  -1.1292655597433025e-01
    x[3,1]    findWorstP[2,3]  -1.4655401809473123e-01
    x[3,1]    findWorstP[3,1]  1.4643427354976052e-01
    x[3,1]    findWorstP[3,2]  1.4643427354976052e-01
    x[3,1]    findWorstP[3,4]  1.4643427354976052e-01
    x[3,1]    findWorstP[3,5]  1.4643427354976052e-01
    x[3,1]    findWorstP[4,3]  -6.9525734232697312e-02
    x[3,1]    findWorstP[5,3]  -9.1274029010697949e-02
    x[3,2]    allocateEach[2]  1
    x[3,2]    findWorstP[1,3]  -4.4066415401853930e-02
    x[3,2]    findWorstP[2,3]  -8.4686003193187850e-02
    x[3,2]    findWorstP[3,1]  1.1796168174560938e-01
    x[3,2]    findWorstP[3,2]  1.1796168174560938e-01
    x[3,2]    findWorstP[3,4]  1.1796168174560938e-01
    x[3,2]    findWorstP[3,5]  1.1796168174560938e-01
    x[3,2]    findWorstP[4,3]  -2.5484895409569306e-02
    x[3,2]    findWorstP[5,3]  -1.1751194984170339e-01
    x[3,3]    allocateEach[3]  1
    x[3,3]    findWorstP[1,3]  -1.4943465417133545e-01
    x[3,3]    findWorstP[2,3]  -1.4145378747560758e-01
    x[3,3]    findWorstP[3,1]  1.9853645556146887e-01
    x[3,3]    findWorstP[3,2]  1.9853645556146887e-01
    x[3,3]    findWorstP[3,4]  1.9853645556146887e-01
    x[3,3]    findWorstP[3,5]  1.9853645556146887e-01
    x[3,3]    findWorstP[4,3]  -1.0871105745256031e-01
    x[3,3]    findWorstP[5,3]  -1.8832122829888054e-01
    x[3,4]    allocateEach[4]  1
    x[3,4]    findWorstP[1,3]  -1.7072425384537027e-01
    x[3,4]    findWorstP[2,3]  -1.2817101295015076e-02
    x[3,4]    findWorstP[3,1]  1.8147951037786059e-01
    x[3,4]    findWorstP[3,2]  1.8147951037786059e-01
    x[3,4]    findWorstP[3,4]  1.8147951037786059e-01
    x[3,4]    findWorstP[3,5]  1.8147951037786059e-01
    x[3,4]    findWorstP[4,3]  -7.9236765439227322e-02
    x[3,4]    findWorstP[5,3]  -1.2121588346059138e-01
    x[3,5]    allocateEach[5]  1
    x[3,5]    findWorstP[1,3]  -1.7396353264744832e-01
    x[3,5]    findWorstP[2,3]  -1.2440127727514632e-02
    x[3,5]    findWorstP[3,1]  8.0255455029270881e-02
    x[3,5]    findWorstP[3,2]  8.0255455029270881e-02
    x[3,5]    findWorstP[3,4]  8.0255455029270881e-02
    x[3,5]    findWorstP[3,5]  8.0255455029270881e-02
    x[3,5]    findWorstP[4,3]  -2.2742185244481775e-01
    x[3,5]    findWorstP[5,3]  -6.5056800546278479e-02
    x[3,6]    allocateEach[6]  1
    x[3,6]    findWorstP[1,3]  -2.8929408169501881e-02
    x[3,6]    findWorstP[2,3]  -2.1208089409260242e-01
    x[3,6]    findWorstP[3,1]  9.8110697179350725e-02
    x[3,6]    findWorstP[3,2]  9.8110697179350725e-02
    x[3,6]    findWorstP[3,4]  9.8110697179350725e-02
    x[3,6]    findWorstP[3,5]  9.8110697179350725e-02
    x[3,6]    findWorstP[4,3]  -1.1052203354242671e-01
    x[3,6]    findWorstP[5,3]  -1.7036025410226169e-01
    x[3,7]    allocateEach[7]  1
    x[3,7]    findWorstP[1,3]  -1.9032290923907508e-01
    x[3,7]    findWorstP[2,3]  -2.2139435870143689e-01
    x[3,7]    findWorstP[3,1]  3.9888238424693988e-02
    x[3,7]    findWorstP[3,2]  3.9888238424693988e-02
    x[3,7]    findWorstP[3,4]  3.9888238424693988e-02
    x[3,7]    findWorstP[3,5]  3.9888238424693988e-02
    x[3,7]    findWorstP[4,3]  -1.1553502532741923e-01
    x[3,7]    findWorstP[5,3]  -1.9815010242721462e-01
    x[3,8]    allocateEach[8]  1
    x[3,8]    findWorstP[1,3]  -9.9073036569216677e-02
    x[3,8]    findWorstP[2,3]  -1.3531133581692387e-01
    x[3,8]    findWorstP[3,1]  9.7418839808408722e-02
    x[3,8]    findWorstP[3,2]  9.7418839808408722e-02
    x[3,8]    findWorstP[3,4]  9.7418839808408722e-02
    x[3,8]    findWorstP[3,5]  9.7418839808408722e-02
    x[3,8]    findWorstP[4,3]  -2.2419359071940370e-01
    x[3,8]    findWorstP[5,3]  -1.7071202433422313e-02
    x[4,1]    allocateEach[1]  1
    x[4,1]    findWorstP[1,4]  -1.1292655597433025e-01
    x[4,1]    findWorstP[2,4]  -1.4655401809473123e-01
    x[4,1]    findWorstP[3,4]  -1.4643427354976052e-01
    x[4,1]    findWorstP[4,1]  6.9525734232697312e-02
    x[4,1]    findWorstP[4,2]  6.9525734232697312e-02
    x[4,1]    findWorstP[4,3]  6.9525734232697312e-02
    x[4,1]    findWorstP[4,5]  6.9525734232697312e-02
    x[4,1]    findWorstP[5,4]  -9.1274029010697949e-02
    x[4,2]    allocateEach[2]  1
    x[4,2]    findWorstP[1,4]  -4.4066415401853930e-02
    x[4,2]    findWorstP[2,4]  -8.4686003193187850e-02
    x[4,2]    findWorstP[3,4]  -1.1796168174560938e-01
    x[4,2]    findWorstP[4,1]  2.5484895409569306e-02
    x[4,2]    findWorstP[4,2]  2.5484895409569306e-02
    x[4,2]    findWorstP[4,3]  2.5484895409569306e-02
    x[4,2]    findWorstP[4,5]  2.5484895409569306e-02
    x[4,2]    findWorstP[5,4]  -1.1751194984170339e-01
    x[4,3]    allocateEach[3]  1
    x[4,3]    findWorstP[1,4]  -1.4943465417133545e-01
    x[4,3]    findWorstP[2,4]  -1.4145378747560758e-01
    x[4,3]    findWorstP[3,4]  -1.9853645556146887e-01
    x[4,3]    findWorstP[4,1]  1.0871105745256031e-01
    x[4,3]    findWorstP[4,2]  1.0871105745256031e-01
    x[4,3]    findWorstP[4,3]  1.0871105745256031e-01
    x[4,3]    findWorstP[4,5]  1.0871105745256031e-01
    x[4,3]    findWorstP[5,4]  -1.8832122829888054e-01
    x[4,4]    allocateEach[4]  1
    x[4,4]    findWorstP[1,4]  -1.7072425384537027e-01
    x[4,4]    findWorstP[2,4]  -1.2817101295015076e-02
    x[4,4]    findWorstP[3,4]  -1.8147951037786059e-01
    x[4,4]    findWorstP[4,1]  7.9236765439227322e-02
    x[4,4]    findWorstP[4,2]  7.9236765439227322e-02
    x[4,4]    findWorstP[4,3]  7.9236765439227322e-02
    x[4,4]    findWorstP[4,5]  7.9236765439227322e-02
    x[4,4]    findWorstP[5,4]  -1.2121588346059138e-01
    x[4,5]    allocateEach[5]  1
    x[4,5]    findWorstP[1,4]  -1.7396353264744832e-01
    x[4,5]    findWorstP[2,4]  -1.2440127727514632e-02
    x[4,5]    findWorstP[3,4]  -8.0255455029270881e-02
    x[4,5]    findWorstP[4,1]  2.2742185244481775e-01
    x[4,5]    findWorstP[4,2]  2.2742185244481775e-01
    x[4,5]    findWorstP[4,3]  2.2742185244481775e-01
    x[4,5]    findWorstP[4,5]  2.2742185244481775e-01
    x[4,5]    findWorstP[5,4]  -6.5056800546278479e-02
    x[4,6]    allocateEach[6]  1
    x[4,6]    findWorstP[1,4]  -2.8929408169501881e-02
    x[4,6]    findWorstP[2,4]  -2.1208089409260242e-01
    x[4,6]    findWorstP[3,4]  -9.8110697179350725e-02
    x[4,6]    findWorstP[4,1]  1.1052203354242671e-01
    x[4,6]    findWorstP[4,2]  1.1052203354242671e-01
    x[4,6]    findWorstP[4,3]  1.1052203354242671e-01
    x[4,6]    findWorstP[4,5]  1.1052203354242671e-01
    x[4,6]    findWorstP[5,4]  -1.7036025410226169e-01
    x[4,7]    allocateEach[7]  1
    x[4,7]    findWorstP[1,4]  -1.9032290923907508e-01
    x[4,7]    findWorstP[2,4]  -2.2139435870143689e-01
    x[4,7]    findWorstP[3,4]  -3.9888238424693988e-02
    x[4,7]    findWorstP[4,1]  1.1553502532741923e-01
    x[4,7]    findWorstP[4,2]  1.1553502532741923e-01
    x[4,7]    findWorstP[4,3]  1.1553502532741923e-01
    x[4,7]    findWorstP[4,5]  1.1553502532741923e-01
    x[4,7]    findWorstP[5,4]  -1.9815010242721462e-01
    x[4,8]    allocateEach[8]  1
    x[4,8]    findWorstP[1,4]  -9.9073036569216677e-02
    x[4,8]    findWorstP[2,4]  -1.3531133581692387e-01
    x[4,8]    findWorstP[3,4]  -9.7418839808408722e-02
    x[4,8]    findWorstP[4,1]  2.2419359071940370e-01
    x[4,8]    findWorstP[4,2]  2.2419359071940370e-01
    x[4,8]    findWorstP[4,3]  2.2419359071940370e-01
    x[4,8]    findWorstP[4,5]  2.2419359071940370e-01
    x[4,8]    findWorstP[5,4]  -1.7071202433422313e-02
    x[5,1]    allocateEach[1]  1
    x[5,1]    findWorstP[1,5]  -1.1292655597433025e-01
    x[5,1]    findWorstP[2,5]  -1.4655401809473123e-01
    x[5,1]    findWorstP[3,5]  -1.4643427354976052e-01
    x[5,1]    findWorstP[4,5]  -6.9525734232697312e-02
    x[5,1]    findWorstP[5,1]  9.1274029010697949e-02
    x[5,1]    findWorstP[5,2]  9.1274029010697949e-02
    x[5,1]    findWorstP[5,3]  9.1274029010697949e-02
    x[5,1]    findWorstP[5,4]  9.1274029010697949e-02
    x[5,2]    allocateEach[2]  1
    x[5,2]    findWorstP[1,5]  -4.4066415401853930e-02
    x[5,2]    findWorstP[2,5]  -8.4686003193187850e-02
    x[5,2]    findWorstP[3,5]  -1.1796168174560938e-01
    x[5,2]    findWorstP[4,5]  -2.5484895409569306e-02
    x[5,2]    findWorstP[5,1]  1.1751194984170339e-01
    x[5,2]    findWorstP[5,2]  1.1751194984170339e-01
    x[5,2]    findWorstP[5,3]  1.1751194984170339e-01
    x[5,2]    findWorstP[5,4]  1.1751194984170339e-01
    x[5,3]    allocateEach[3]  1
    x[5,3]    findWorstP[1,5]  -1.4943465417133545e-01
    x[5,3]    findWorstP[2,5]  -1.4145378747560758e-01
    x[5,3]    findWorstP[3,5]  -1.9853645556146887e-01
    x[5,3]    findWorstP[4,5]  -1.0871105745256031e-01
    x[5,3]    findWorstP[5,1]  1.8832122829888054e-01
    x[5,3]    findWorstP[5,2]  1.8832122829888054e-01
    x[5,3]    findWorstP[5,3]  1.8832122829888054e-01
    x[5,3]    findWorstP[5,4]  1.8832122829888054e-01
    x[5,4]    allocateEach[4]  1
    x[5,4]    findWorstP[1,5]  -1.7072425384537027e-01
    x[5,4]    findWorstP[2,5]  -1.2817101295015076e-02
    x[5,4]    findWorstP[3,5]  -1.8147951037786059e-01
    x[5,4]    findWorstP[4,5]  -7.9236765439227322e-02
    x[5,4]    findWorstP[5,1]  1.2121588346059138e-01
    x[5,4]    findWorstP[5,2]  1.2121588346059138e-01
    x[5,4]    findWorstP[5,3]  1.2121588346059138e-01
    x[5,4]    findWorstP[5,4]  1.2121588346059138e-01
    x[5,5]    allocateEach[5]  1
    x[5,5]    findWorstP[1,5]  -1.7396353264744832e-01
    x[5,5]    findWorstP[2,5]  -1.2440127727514632e-02
    x[5,5]    findWorstP[3,5]  -8.0255455029270881e-02
    x[5,5]    findWorstP[4,5]  -2.2742185244481775e-01
    x[5,5]    findWorstP[5,1]  6.5056800546278479e-02
    x[5,5]    findWorstP[5,2]  6.5056800546278479e-02
    x[5,5]    findWorstP[5,3]  6.5056800546278479e-02
    x[5,5]    findWorstP[5,4]  6.5056800546278479e-02
    x[5,6]    allocateEach[6]  1
    x[5,6]    findWorstP[1,5]  -2.8929408169501881e-02
    x[5,6]    findWorstP[2,5]  -2.1208089409260242e-01
    x[5,6]    findWorstP[3,5]  -9.8110697179350725e-02
    x[5,6]    findWorstP[4,5]  -1.1052203354242671e-01
    x[5,6]    findWorstP[5,1]  1.7036025410226169e-01
    x[5,6]    findWorstP[5,2]  1.7036025410226169e-01
    x[5,6]    findWorstP[5,3]  1.7036025410226169e-01
    x[5,6]    findWorstP[5,4]  1.7036025410226169e-01
    x[5,7]    allocateEach[7]  1
    x[5,7]    findWorstP[1,5]  -1.9032290923907508e-01
    x[5,7]    findWorstP[2,5]  -2.2139435870143689e-01
    x[5,7]    findWorstP[3,5]  -3.9888238424693988e-02
    x[5,7]    findWorstP[4,5]  -1.1553502532741923e-01
    x[5,7]    findWorstP[5,1]  1.9815010242721462e-01
    x[5,7]    findWorstP[5,2]  1.9815010242721462e-01
    x[5,7]    findWorstP[5,3]  1.9815010242721462e-01
    x[5,7]    findWorstP[5,4]  1.9815010242721462e-01
    x[5,8]    allocateEach[8]  1
    x[5,8]    findWorstP[1,5]  -9.9073036569216677e-02
    x[5,8]    findWorstP[2,5]  -1.3531133581692387e-01
    x[5,8]    findWorstP[3,5]  -9.7418839808408722e-02
    x[5,8]    findWorstP[4,5]  -2.2419359071940370e-01
    x[5,8]    findWorstP[5,1]  1.7071202433422313e-02
    x[5,8]    findWorstP[5,2]  1.7071202433422313e-02
    x[5,8]    findWorstP[5,3]  1.7071202433422313e-02
    x[5,8]    findWorstP[5,4]  1.7071202433422313e-02
    MARKER    'MARKER'                 'INTEND'
RHS
    RHS1      allocateEach[1]  1
    RHS1      allocateEach[2]  1
    RHS1      allocateEach[3]  1
    RHS1      allocateEach[4]  1
    RHS1      allocateEach[5]  1
    RHS1      allocateEach[6]  1
    RHS1      allocateEach[7]  1
    RHS1      allocateEach[8]  1
    RHS1      allocateAllCash  1
BOUNDS
 UP BND1      z         1
 MI BND1      cashProportion[1]
 UP BND1      cashProportion[1]  1
 MI BND1      cashProportion[2]
 UP BND1      cashProportion[2]  1
 MI BND1      cashProportion[3]
 UP BND1      cashProportion[3]  1
 MI BND1      cashProportion[4]
 UP BND1      cashProportion[4]  1
 MI BND1      cashProportion[5]
 UP BND1      cashProportion[5]  1
 BV BND1      x[1,1]  
 BV BND1      x[1,2]  
 BV BND1      x[1,3]  
 BV BND1      x[1,4]  
 BV BND1      x[1,5]  
 BV BND1      x[1,6]  
 BV BND1      x[1,7]  
 BV BND1      x[1,8]  
 BV BND1      x[2,1]  
 BV BND1      x[2,2]  
 BV BND1      x[2,3]  
 BV BND1      x[2,4]  
 BV BND1      x[2,5]  
 BV BND1      x[2,6]  
 BV BND1      x[2,7]  
 BV BND1      x[2,8]  
 BV BND1      x[3,1]  
 BV BND1      x[3,2]  
 BV BND1      x[3,3]  
 BV BND1      x[3,4]  
 BV BND1      x[3,5]  
 BV BND1      x[3,6]  
 BV BND1      x[3,7]  
 BV BND1      x[3,8]  
 BV BND1      x[4,1]  
 BV BND1      x[4,2]  
 BV BND1      x[4,3]  
 BV BND1      x[4,4]  
 BV BND1      x[4,5]  
 BV BND1      x[4,6]  
 BV BND1      x[4,7]  
 BV BND1      x[4,8]  
 BV BND1      x[5,1]  
 BV BND1      x[5,2]  
 BV BND1      x[5,3]  
 BV BND1      x[5,4]  
 BV BND1      x[5,5]  
 BV BND1      x[5,6]  
 BV BND1      x[5,7]  
 BV BND1      x[5,8]  
ENDATA
